Route #1: 1 5 36 42 28 26 33 30 41 22 6 1
Route #2: 1 34 21 19 20 15 29 38 13 32 1
Route #3: 1 14 4 23 25 7 43 35 18 1
Route #4: 1 39 9 3 24 2 8 11 1
Route #5: 1 27 40 17 16 37 10 1
Route #6: 1 31 12 1
cost 819
